p cnf 10 50
-5 4 -6 0
2 4 6 0
-10 -2 -3 0
9 -2 -6 0
7 -8 -9 0
1 -10 4 0
8 -2 10 0
3 1 10 0
-4 7 9 0
-4 7 2 0
7 2 -1 0
9 7 -2 0
-3 1 -8 0
-10 1 6 0
-4 -10 -9 0
-8 -9 -3 0
-3 -2 -5 0
7 -2 -8 0
-8 -4 10 0
4 8 3 0
2 1 10 0
2 8 4 0
-5 10 -1 0
-3 -5 1 0
1 -9 -3 0
-3 1 2 0
10 4 -6 0
1 -5 7 0
6 8 3 0
-4 7 3 0
-3 -9 7 0
7 -10 6 0
-5 8 -10 0
-5 8 -9 0
-1 8 5 0
10 3 1 0
-1 -10 3 0
-4 9 6 0
-6 5 1 0
-2 -5 6 0
1 -3 5 0
-10 1 2 0
4 6 -10 0
-4 2 9 0
9 1 3 0
3 9 -7 0
8 -6 5 0
-7 10 -3 0
8 3 -4 0
-8 -2 -9 0